11376 15624 1604
9884 16116 1621
14088 12912 1263
13831 14169 1283
13175 15825 1425
10625 15375 1623
11539 16461 1577
11152 17848 1437
10695 16305 1612
13842 13158 1385
9625 18375 1423
10695 15305 1623
10888 17112 1564
12844 16156 1439
13770 14230 1416
9661 18339 1500
8466 18534 1457
10015 16985 1613
9285 17715 1573
12564 15436 1561
11238 17762 1449
13821 14179 1319
12461 16539 1455
13130 14870 1522
10391 17609 1540
12392 16608 1457
